p cnf 171 420
-15 1 0
-15 -2 0
-16 -1 0
-16 2 0
17 15 16 0
-18 3 0
-18 -4 0
-19 -3 0
-19 4 0
20 18 19 0
21 -17 -20 0
-22 5 0
-22 -6 0
-23 -5 0
-23 6 0
24 22 23 0
25 -21 -24 0
-26 7 0
-26 -8 0
-27 -7 0
-27 8 0
28 26 27 0
29 -25 -28 0
30 -9 10 0
31 9 -10 0
-32 -30 0
-32 -31 0
-33 9 0
-33 11 0
33 -9 -11 0
-34 7 0
-34 33 0
34 -7 -33 0
-35 7 0
-35 11 0
35 -7 -11 0
-36 5 0
-36 35 0
36 -5 -35 0
-37 -5 0
-37 -35 0
37 5 35 0
-38 -36 0
-38 -37 0
38 36 37 0
-39 34 0
-39 38 0
39 -34 -38 0
-40 -34 0
-40 -38 0
40 34 38 0
-41 -39 0
-41 -40 0
41 39 40 0
-42 9 0
-42 12 0
42 -9 -12 0
-43 41 0
-43 42 0
43 -41 -42 0
-44 -36 0
-44 -39 0
44 36 39 0
-45 5 0
-45 11 0
45 -5 -11 0
-46 3 0
-46 45 0
46 -3 -45 0
-47 -3 0
-47 -45 0
47 3 45 0
-48 -46 0
-48 -47 0
48 46 47 0
-49 -44 0
-49 48 0
49 44 -48 0
-50 44 0
-50 -48 0
50 -44 48 0
-51 -49 0
-51 -50 0
51 49 50 0
-52 7 0
-52 12 0
52 -7 -12 0
-53 51 0
-53 52 0
53 -51 -52 0
-54 -51 0
-54 -52 0
54 51 52 0
-55 -53 0
-55 -54 0
55 53 54 0
-56 43 0
-56 55 0
56 -43 -55 0
-57 -43 0
-57 -55 0
57 43 55 0
-58 -56 0
-58 -57 0
58 56 57 0
-59 9 0
-59 13 0
59 -9 -13 0
-60 58 0
-60 59 0
60 -58 -59 0
-61 -53 0
-61 -56 0
61 53 56 0
-62 -46 0
-62 -49 0
62 46 49 0
-63 3 0
-63 11 0
63 -3 -11 0
-64 1 0
-64 63 0
64 -1 -63 0
-65 -1 0
-65 -63 0
65 1 63 0
-66 -64 0
-66 -65 0
66 64 65 0
-67 -62 0
-67 66 0
67 62 -66 0
-68 62 0
-68 -66 0
68 -62 66 0
-69 -67 0
-69 -68 0
69 67 68 0
-70 5 0
-70 12 0
70 -5 -12 0
-71 69 0
-71 70 0
71 -69 -70 0
-72 -69 0
-72 -70 0
72 69 70 0
-73 -71 0
-73 -72 0
73 71 72 0
-74 -61 0
-74 73 0
74 61 -73 0
-75 61 0
-75 -73 0
75 -61 73 0
-76 -74 0
-76 -75 0
76 74 75 0
-77 7 0
-77 13 0
77 -7 -13 0
-78 76 0
-78 77 0
78 -76 -77 0
-79 -76 0
-79 -77 0
79 76 77 0
-80 -78 0
-80 -79 0
80 78 79 0
-81 60 0
-81 80 0
81 -60 -80 0
-82 -60 0
-82 -80 0
82 60 80 0
-83 -81 0
-83 -82 0
83 81 82 0
-84 9 0
-84 14 0
84 -9 -14 0
-85 83 0
-85 84 0
85 -83 -84 0
-86 -83 0
-86 -84 0
86 83 84 0
-87 -85 0
-87 -86 0
87 85 86 0
-88 10 0
-88 11 0
88 -10 -11 0
-89 8 0
-89 88 0
89 -8 -88 0
-90 8 0
-90 11 0
90 -8 -11 0
-91 6 0
-91 90 0
91 -6 -90 0
-92 -6 0
-92 -90 0
92 6 90 0
-93 -91 0
-93 -92 0
93 91 92 0
-94 89 0
-94 93 0
94 -89 -93 0
-95 -89 0
-95 -93 0
95 89 93 0
-96 -94 0
-96 -95 0
96 94 95 0
-97 10 0
-97 12 0
97 -10 -12 0
-98 96 0
-98 97 0
98 -96 -97 0
-99 -91 0
-99 -94 0
99 91 94 0
-100 6 0
-100 11 0
100 -6 -11 0
-101 4 0
-101 100 0
101 -4 -100 0
-102 -4 0
-102 -100 0
102 4 100 0
-103 -101 0
-103 -102 0
103 101 102 0
-104 -99 0
-104 103 0
104 99 -103 0
-105 99 0
-105 -103 0
105 -99 103 0
-106 -104 0
-106 -105 0
106 104 105 0
-107 8 0
-107 12 0
107 -8 -12 0
-108 106 0
-108 107 0
108 -106 -107 0
-109 -106 0
-109 -107 0
109 106 107 0
-110 -108 0
-110 -109 0
110 108 109 0
-111 98 0
-111 110 0
111 -98 -110 0
-112 -98 0
-112 -110 0
112 98 110 0
-113 -111 0
-113 -112 0
113 111 112 0
-114 10 0
-114 13 0
114 -10 -13 0
-115 113 0
-115 114 0
115 -113 -114 0
-116 -108 0
-116 -111 0
116 108 111 0
-117 -101 0
-117 -104 0
117 101 104 0
-118 4 0
-118 11 0
118 -4 -11 0
-119 2 0
-119 118 0
119 -2 -118 0
-120 -2 0
-120 -118 0
120 2 118 0
-121 -119 0
-121 -120 0
121 119 120 0
-122 -117 0
-122 121 0
122 117 -121 0
-123 117 0
-123 -121 0
123 -117 121 0
-124 -122 0
-124 -123 0
124 122 123 0
-125 6 0
-125 12 0
125 -6 -12 0
-126 124 0
-126 125 0
126 -124 -125 0
-127 -124 0
-127 -125 0
127 124 125 0
-128 -126 0
-128 -127 0
128 126 127 0
-129 -116 0
-129 128 0
129 116 -128 0
-130 116 0
-130 -128 0
130 -116 128 0
-131 -129 0
-131 -130 0
131 129 130 0
-132 8 0
-132 13 0
132 -8 -13 0
-133 131 0
-133 132 0
133 -131 -132 0
-134 -131 0
-134 -132 0
134 131 132 0
-135 -133 0
-135 -134 0
135 133 134 0
-136 115 0
-136 135 0
136 -115 -135 0
-137 -115 0
-137 -135 0
137 115 135 0
-138 -136 0
-138 -137 0
138 136 137 0
-139 10 0
-139 14 0
139 -10 -14 0
-140 138 0
-140 139 0
140 -138 -139 0
-141 -138 0
-141 -139 0
141 138 139 0
-142 -140 0
-142 -141 0
142 140 141 0
143 -87 142 0
144 87 -142 0
-145 -143 0
-145 -144 0
-146 -58 0
-146 -59 0
146 58 59 0
-147 -60 0
-147 -146 0
147 60 146 0
-148 -113 0
-148 -114 0
148 113 114 0
-149 -115 0
-149 -148 0
149 115 148 0
150 -147 149 0
151 147 -149 0
-152 -150 0
-152 -151 0
-153 145 0
-153 152 0
-154 -41 0
-154 -42 0
154 41 42 0
-155 -43 0
-155 -154 0
155 43 154 0
-156 -96 0
-156 -97 0
156 96 97 0
-157 -98 0
-157 -156 0
157 98 156 0
158 -155 157 0
159 155 -157 0
-160 -158 0
-160 -159 0
-161 153 0
-161 160 0
-162 -7 0
-162 -33 0
162 7 33 0
-163 -34 0
-163 -162 0
163 34 162 0
-164 -8 0
-164 -88 0
164 8 88 0
-165 -89 0
-165 -164 0
165 89 164 0
166 -163 165 0
167 163 -165 0
-168 -166 0
-168 -167 0
-169 161 0
-169 168 0
-170 32 0
-170 169 0
-171 -29 0
-171 170 0
171 0
